Al4
   1.00000000000000
     4.0432254711710000    0.0000000000000000    0.0000000000000000
     0.0000000000000000    4.0432254711710000    0.0000000000000000
     0.0000000000000000    0.0000000000000000    4.0432254711710000
   Al
     4
Direct
  0.0000000000000000  0.0000000000000000  0.0000000000000000
  0.0000000000000000  0.5000000000000000  0.5000000000000000
  0.5000000000000000  0.0000000000000000  0.5000000000000000
  0.5000000000000000  0.5000000000000000  0.0000000000000000
